(set-logic QF_S)
(set-option :strings-exp true)
(set-option :produce-models true)
(declare-fun sigmaStar_0 () String)
(declare-fun sigmaStar_1 () String)
(declare-fun sigmaStar_2 () String)
(declare-fun x_6 () String)
(declare-fun literal_3 () String)
(assert (= literal_3 "\x65\x6e"))
(assert (or (= x_6 sigmaStar_2) (= x_6 literal_3) (= x_6 sigmaStar_1) (= x_6 sigmaStar_0)))
(assert (str.in.re x_6 (re.++ (re.* re.allchar) (re.++ (str.to.re "\x5c\x3c\x53\x43\x52\x49\x50\x54") (re.* re.allchar)))))
(check-sat)
(get-model)
